unsat
(:max-memory              26.38
 :memory                  18.18
 :num-allocs              550921
 :rlimit-count            331317
 :sat-backjumps           10155
 :sat-conflicts           10156
 :sat-decisions           13715
 :sat-del-clause          6080
 :sat-elim-bool-vars-res  48
 :sat-elim-clauses        5520
 :sat-elim-literals       10035
 :sat-minimized-lits      63558
 :sat-mk-clause-2ary      368
 :sat-mk-clause-3ary      66
 :sat-mk-clause-nary      10676
 :sat-mk-var              235
 :sat-probing-assigned    44
 :sat-propagations-2ary   211789
 :sat-propagations-nary   82386
 :sat-restarts            352
 :sat-scc-elim-binary     7
 :sat-subs-resolution     3
 :sat-subs-resolution-dyn 2301
 :sat-subsumed            15
 :sat-units               136
 :time                    0.32
 :total-time              0.27)
